NAME
ROWS
 N  OBJ
 L  c2
 L  c3
 G  c1
COLUMNS
    y         c1        1
    x         c2        1
RHS
    rhs       c2        1
    rhs       c3        0
    rhs       c1        2
RANGES
BOUNDS
 FR bounds    y
 LO bounds    x         0
 PL bounds    x
QCMATRIX   c3
    y         y         1
    x         x         -1
ENDATA
